(set-logic ALL)
(set-option :produce-models true)
(declare-sort BoundSet 0)
(declare-sort UnboundSet 0)
(set-option :finite-model-find true)
(declare-fun IsInWorld (BoundSet) Bool)
(declare-fun BeganIn1979 (BoundSet) Bool)
(declare-fun IsIncreasing (BoundSet) Bool)
(assert (not (=> (exists ((c BoundSet)) (exists ((b BoundSet)) (and (IsInWorld b) (BeganIn1979 c)))) (exists ((d BoundSet)) (and (IsInWorld d) (IsIncreasing d))))))
(check-sat)
(get-model)